proyfinal/src/viki/013/experimentInOfficeAgust.take6.output/98002314-4a49-470d-98e2-dcf7c3c348f5.als.dat
{'cnf.clauses': '118081',
 'cnf.totvars': '69608',
 'conflict literals': '62',
 'conflicts': '20',
 'decisions': '5755',
 'memused.mb': '15.36',
 'outcome': 'UNSAT',
 'propagations': '29858',
 'restarts': '1',
 'solver.msecs': 25,
 'task.msecs': 87}
