proyfinal/src/viki/013/experimentInOfficeAgust.take6.output/98002314-4a49-470d-98e2-dcf7c3c348f5.als.out
Reading from standard input... Use '--help' for help.
============================[ Problem Statistics ]=============================
|                                                                             |
|  Number of variables:         69608                                         |
|  Number of clauses:          118081                                         |
|  Parse time:                   0.02 s                                       |
|                                                                             |
============================[ Search Statistics ]==============================
| Conflicts |          ORIGINAL         |          LEARNT          | Progress |
|           |    Vars  Clauses Literals |    Limit  Clauses Lit/Cl |          |
===============================================================================
===============================================================================
restarts              : 1
conflicts             : 20             (774 /sec)
decisions             : 5755           (0.00 % random) (222708 /sec)
propagations          : 29858          (1155451 /sec)
conflict literals     : 62             (0.00 % deleted)
Memory used           : 15.36 MB
CPU time              : 0.025841 s

UNSATISFIABLE
